\ENCODING=ISO-8859-1
\Problem name: Configuration1

Minimize
 obj: 500 x("VNF1")(1) + 500 x("VNF1")(2) + 500 x("VNF1")(3) + 500 x("VNF1")(4)
      + 500 x("VNF1")(5) + 500 x("VNF1")(6) + 500 x("VNF2")(1)
      + 500 x("VNF2")(2) + 500 x("VNF2")(3) + 500 x("VNF2")(4)
      + 500 x("VNF2")(5) + 500 x("VNF2")(6) + 500 x("VNF3")(1)
      + 500 x("VNF3")(2) + 500 x("VNF3")(3) + 500 x("VNF3")(4)
      + 500 x("VNF3")(5) + 500 x("VNF3")(6) + 0 x55 + 0 x56 + 0 x57 + 0 x58
      + 0 x59 + 0 x60 + 0 x61 + 0 x62 + 0 x63 + 0 x64 + 0 x65 + 0 x66 + 0 x67
      + 0 x68 + 0 x69 + 0 x70 + 0 x71 + 0 x72 + 0 x73 + 0 x74 + 0 x75 + 0 x76
      + 0 x77 + 0 x78 + 0 x79 + 0 x80 + 0 x81 + 0 x82 + 0 x83 + 0 x84 + 0 x85
      + 0 x86 + 0 x87 + 0 x88 + 0 x89 + 0 x90 + 0 x91 + 0 x92 + 0 x93 + 0 x94
      + 0 x95 + 0 x96 + 0 x97 + 0 x98 + 0 x99 + 0 x100 + 0 x101 + 0 x102
      + 0 x103 + 0 x104 + 0 x105 + 0 x106 + 0 x107 + 0 x108 + 0 x109 + 0 x110
      + 0 x111 + 0 x112 + 0 x113 + 0 x114 + 0 x115 + 0 x116 + 0 x117 + 0 x118
      + 0 x119 + 0 x120 + 0 x121 + 0 x122 + 0 x123 + 0 x124 + 0 x125 + 0 x126
      + 0 x127 + 0 x128 + 0 x129 + 0 x130 + 0 x131 + 0 x132 + 0 x133 + 0 x134
      + 0 x135 + 0 x136 + 0 x137 + 0 x138 + 0 x139 + 0 x140 + 0 x141 + 0 x142
      + 0 x143 + 0 x144 + 0 x145 + 0 x146 + 0 x147 + 0 x148 + 0 x149 + 0 x150
      + 0 x187 + 0 x188 + 0 x189 + 0 x190 + 0 x191 + 0 x192 + 0 x193 + 0 x194
      + 0 x195 + 0 x196 + 0 x197 + 0 x198 + 0 x199 + 0 x200 + 0 x201 + 0 x202
      + 0 x203 + 0 x204 + 0 x205 + 0 x206 + 0 x207 + 0 x208 + 0 x209 + 0 x210
      + 0 x211 + 0 x212 + 0 x213 + 0 x214 + 0 x215 + 0 x216 + 0 x217 + 0 x218
      + 0 x219 + 0 x220 + 0 x221 + 0 x222 + 0 x223 + 0 x224 + 0 x225 + 0 x226
      + 0 x227 + 0 x228 + 0 x229 + 0 x230 + 0 x231 + 0 x232 + 0 x233 + 0 x234
      + 0 x235 + 0 x236 + 0 x237 + 0 x238 + 0 x239 + 0 x240 + 0 x241 + 0 x242
      + 0 x243 + 0 x244 + 0 x245 + 0 x246 + 0 x247 + 0 x248 + 0 x249 + 0 x250
      + 0 x251 + 0 x252 + 0 x253 + 0 x254 + 0 x255 + 0 x256 + 0 x257 + 0 x258
      + 0 x259 + 0 x260 + 0 x261 + 0 x262 + 0 x263 + 0 x264 + 0 x265 + 0 x266
      + 0 x267 + 0 x268 + 0 x269 + 0 x270 + 0 x271 + 0 x272 + 0 x273 + 0 x274
      + 0 x275 + 0 x276 + 0 x277 + 0 x278 + 0 x279 + 0 x280 + 0 x281 + 0 x282
Subject To
 c1:   10 y({"sfc_1"})(1)(1) + 10 y({"sfc_1"})(2)(1) + 10 y({"sfc_1"})(3)(1)
       + 10 y({"sfc_2"})(1)(1) + 10 y({"sfc_2"})(2)(1) + 10 y({"sfc_2"})(3)(1)
       <= 100
 c2:   10 y({"sfc_1"})(1)(2) + 10 y({"sfc_1"})(2)(2) + 10 y({"sfc_1"})(3)(2)
       + 10 y({"sfc_2"})(1)(2) + 10 y({"sfc_2"})(2)(2) + 10 y({"sfc_2"})(3)(2)
       <= 100
 c3:   10 y({"sfc_1"})(1)(3) + 10 y({"sfc_1"})(2)(3) + 10 y({"sfc_1"})(3)(3)
       + 10 y({"sfc_2"})(1)(3) + 10 y({"sfc_2"})(2)(3) + 10 y({"sfc_2"})(3)(3)
       <= 100
 c4:   10 y({"sfc_1"})(1)(4) + 10 y({"sfc_1"})(2)(4) + 10 y({"sfc_1"})(3)(4)
       + 10 y({"sfc_2"})(1)(4) + 10 y({"sfc_2"})(2)(4) + 10 y({"sfc_2"})(3)(4)
       <= 100
 c5:   10 y({"sfc_1"})(1)(5) + 10 y({"sfc_1"})(2)(5) + 10 y({"sfc_1"})(3)(5)
       + 10 y({"sfc_2"})(1)(5) + 10 y({"sfc_2"})(2)(5) + 10 y({"sfc_2"})(3)(5)
       <= 100
 c6:   10 y({"sfc_1"})(1)(6) + 10 y({"sfc_1"})(2)(6) + 10 y({"sfc_1"})(3)(6)
       + 10 y({"sfc_2"})(1)(6) + 10 y({"sfc_2"})(2)(6) + 10 y({"sfc_2"})(3)(6)
       <= 100
 c7:   y({"sfc_1"})(1)(2) + y({"sfc_1"})(1)(3) + y({"sfc_1"})(1)(5)
       + y({"sfc_1"})(1)(6)  = 1
 c8:   y({"sfc_1"})(2)(2) + y({"sfc_1"})(2)(3) + y({"sfc_1"})(2)(5)
       + y({"sfc_1"})(2)(6)  = 1
 c9:   y({"sfc_1"})(3)(2) + y({"sfc_1"})(3)(3) + y({"sfc_1"})(3)(5)
       + y({"sfc_1"})(3)(6)  = 1
 c10:  y({"sfc_2"})(1)(2) + y({"sfc_2"})(1)(3) + y({"sfc_2"})(1)(5)
       + y({"sfc_2"})(1)(6)  = 1
 c11:  y({"sfc_2"})(2)(2) + y({"sfc_2"})(2)(3) + y({"sfc_2"})(2)(5)
       + y({"sfc_2"})(2)(6)  = 1
 c12:  y({"sfc_2"})(3)(2) + y({"sfc_2"})(3)(3) + y({"sfc_2"})(3)(5)
       + y({"sfc_2"})(3)(6)  = 1
 c13:  y({"sfc_1"})(1)(2) + y({"sfc_1"})(2)(2) + y({"sfc_1"})(3)(2) <= 1
 c14:  y({"sfc_1"})(1)(3) + y({"sfc_1"})(2)(3) + y({"sfc_1"})(3)(3) <= 1
 c15:  y({"sfc_1"})(1)(5) + y({"sfc_1"})(2)(5) + y({"sfc_1"})(3)(5) <= 1
 c16:  y({"sfc_1"})(1)(6) + y({"sfc_1"})(2)(6) + y({"sfc_1"})(3)(6) <= 1
 c17:  y({"sfc_2"})(1)(2) + y({"sfc_2"})(2)(2) + y({"sfc_2"})(3)(2) <= 1
 c18:  y({"sfc_2"})(1)(3) + y({"sfc_2"})(2)(3) + y({"sfc_2"})(3)(3) <= 1
 c19:  y({"sfc_2"})(1)(5) + y({"sfc_2"})(2)(5) + y({"sfc_2"})(3)(5) <= 1
 c20:  y({"sfc_2"})(1)(6) + y({"sfc_2"})(2)(6) + y({"sfc_2"})(3)(6) <= 1
 c21:  y({"sfc_1"})(1)(1)  = 0
 c22:  y({"sfc_1"})(1)(4)  = 0
 c23:  y({"sfc_1"})(2)(1)  = 0
 c24:  y({"sfc_1"})(2)(4)  = 0
 c25:  y({"sfc_1"})(3)(1)  = 0
 c26:  y({"sfc_1"})(3)(4)  = 0
 c27:  y({"sfc_2"})(1)(1)  = 0
 c28:  y({"sfc_2"})(1)(4)  = 0
 c29:  y({"sfc_2"})(2)(1)  = 0
 c30:  y({"sfc_2"})(2)(4)  = 0
 c31:  y({"sfc_2"})(3)(1)  = 0
 c32:  y({"sfc_2"})(3)(4)  = 0
 c33:  20 z({"sfc_1"})({1,2}) + 20 z({"sfc_2"})({1,2}) <= 100
 c34:  20 z({"sfc_1"})({2,3}) + 20 z({"sfc_2"})({2,3}) <= 100
 c35:  20 z({"sfc_1"})({2,6}) + 20 z({"sfc_2"})({2,6}) <= 100
 c36:  20 z({"sfc_1"})({2,5}) + 20 z({"sfc_2"})({2,5}) <= 100
 c37:  20 z({"sfc_1"})({3,4}) + 20 z({"sfc_2"})({3,4}) <= 100
 c38:  20 z({"sfc_1"})({3,5}) + 20 z({"sfc_2"})({3,5}) <= 100
 c39:  20 z({"sfc_1"})({4,5}) + 20 z({"sfc_2"})({4,5}) <= 100
 c40:  20 z({"sfc_1"})({5,6}) + 20 z({"sfc_2"})({5,6}) <= 100
 c41:  20 z({"sfc_1"})({1,6}) + 20 z({"sfc_2"})({1,6}) <= 100
 c42:  20 z({"sfc_1"})({2,1}) + 20 z({"sfc_2"})({2,1}) <= 100
 c43:  20 z({"sfc_1"})({3,2}) + 20 z({"sfc_2"})({3,2}) <= 100
 c44:  20 z({"sfc_1"})({6,2}) + 20 z({"sfc_2"})({6,2}) <= 100
 c45:  20 z({"sfc_1"})({5,2}) + 20 z({"sfc_2"})({5,2}) <= 100
 c46:  20 z({"sfc_1"})({4,3}) + 20 z({"sfc_2"})({4,3}) <= 100
 c47:  20 z({"sfc_1"})({5,3}) + 20 z({"sfc_2"})({5,3}) <= 100
 c48:  20 z({"sfc_1"})({5,4}) + 20 z({"sfc_2"})({5,4}) <= 100
 c49:  20 z({"sfc_1"})({6,5}) + 20 z({"sfc_2"})({6,5}) <= 100
 c50:  20 z({"sfc_1"})({6,1}) + 20 z({"sfc_2"})({6,1}) <= 100
 c51:  5 z({"sfc_1"})({1,2}) + 5 z({"sfc_1"})({2,3}) + 5 z({"sfc_1"})({2,6})
       + 5 z({"sfc_1"})({2,5}) + 5 z({"sfc_1"})({3,4}) + 5 z({"sfc_1"})({3,5})
       + 5 z({"sfc_1"})({4,5}) + 5 z({"sfc_1"})({5,6}) + 5 z({"sfc_1"})({1,6})
       + 5 z({"sfc_1"})({2,1}) + 5 z({"sfc_1"})({3,2}) + 5 z({"sfc_1"})({6,2})
       + 5 z({"sfc_1"})({5,2}) + 5 z({"sfc_1"})({4,3}) + 5 z({"sfc_1"})({5,3})
       + 5 z({"sfc_1"})({5,4}) + 5 z({"sfc_1"})({6,5}) + 5 z({"sfc_1"})({6,1})
       <= 20
 c52:  5 z({"sfc_2"})({1,2}) + 5 z({"sfc_2"})({2,3}) + 5 z({"sfc_2"})({2,6})
       + 5 z({"sfc_2"})({2,5}) + 5 z({"sfc_2"})({3,4}) + 5 z({"sfc_2"})({3,5})
       + 5 z({"sfc_2"})({4,5}) + 5 z({"sfc_2"})({5,6}) + 5 z({"sfc_2"})({1,6})
       + 5 z({"sfc_2"})({2,1}) + 5 z({"sfc_2"})({3,2}) + 5 z({"sfc_2"})({6,2})
       + 5 z({"sfc_2"})({5,2}) + 5 z({"sfc_2"})({4,3}) + 5 z({"sfc_2"})({5,3})
       + 5 z({"sfc_2"})({5,4}) + 5 z({"sfc_2"})({6,5}) + 5 z({"sfc_2"})({6,1})
       <= 25
 c53:  z({"sfc_1"})({1,2}) + z({"sfc_1"})({1,6}) - z({"sfc_1"})({2,1})
       - z({"sfc_1"})({6,1})  = 1
 c54:  z({"sfc_2"})({1,2}) + z({"sfc_2"})({1,6}) - z({"sfc_2"})({2,1})
       - z({"sfc_2"})({6,1})  = 1
 c55:  z({"sfc_1"})({3,4}) - z({"sfc_1"})({4,5}) - z({"sfc_1"})({4,3})
       + z({"sfc_1"})({5,4})  = 1
 c56:  z({"sfc_2"})({3,4}) - z({"sfc_2"})({4,5}) - z({"sfc_2"})({4,3})
       + z({"sfc_2"})({5,4})  = 1
 c57:  - z({"sfc_1"})({1,2}) + z({"sfc_1"})({2,3}) + z({"sfc_1"})({2,6})
       + z({"sfc_1"})({2,5}) + z({"sfc_1"})({2,1}) - z({"sfc_1"})({3,2})
       - z({"sfc_1"})({6,2}) - z({"sfc_1"})({5,2})  = 0
 c58:  - z({"sfc_1"})({2,3}) + z({"sfc_1"})({3,4}) + z({"sfc_1"})({3,5})
       + z({"sfc_1"})({3,2}) - z({"sfc_1"})({4,3}) - z({"sfc_1"})({5,3})  = 0
 c59:  - z({"sfc_1"})({2,5}) - z({"sfc_1"})({3,5}) - z({"sfc_1"})({4,5})
       + z({"sfc_1"})({5,6}) + z({"sfc_1"})({5,2}) + z({"sfc_1"})({5,3})
       + z({"sfc_1"})({5,4}) - z({"sfc_1"})({6,5})  = 0
 c60:  - z({"sfc_1"})({2,6}) - z({"sfc_1"})({5,6}) - z({"sfc_1"})({1,6})
       + z({"sfc_1"})({6,2}) + z({"sfc_1"})({6,5}) + z({"sfc_1"})({6,1})  = 0
 c61:  - z({"sfc_2"})({1,2}) + z({"sfc_2"})({2,3}) + z({"sfc_2"})({2,6})
       + z({"sfc_2"})({2,5}) + z({"sfc_2"})({2,1}) - z({"sfc_2"})({3,2})
       - z({"sfc_2"})({6,2}) - z({"sfc_2"})({5,2})  = 0
 c62:  - z({"sfc_2"})({2,3}) + z({"sfc_2"})({3,4}) + z({"sfc_2"})({3,5})
       + z({"sfc_2"})({3,2}) - z({"sfc_2"})({4,3}) - z({"sfc_2"})({5,3})  = 0
 c63:  - z({"sfc_2"})({2,5}) - z({"sfc_2"})({3,5}) - z({"sfc_2"})({4,5})
       + z({"sfc_2"})({5,6}) + z({"sfc_2"})({5,2}) + z({"sfc_2"})({5,3})
       + z({"sfc_2"})({5,4}) - z({"sfc_2"})({6,5})  = 0
 c64:  - z({"sfc_2"})({2,6}) - z({"sfc_2"})({5,6}) - z({"sfc_2"})({1,6})
       + z({"sfc_2"})({6,2}) + z({"sfc_2"})({6,5}) + z({"sfc_2"})({6,1})  = 0
 c65:  z({"sfc_1"})({1,2}) + z({"sfc_1"})({2,1}) <= 1
 c66:  z({"sfc_1"})({2,3}) + z({"sfc_1"})({3,2}) <= 1
 c67:  z({"sfc_1"})({2,6}) + z({"sfc_1"})({6,2}) <= 1
 c68:  z({"sfc_1"})({2,5}) + z({"sfc_1"})({5,2}) <= 1
 c69:  z({"sfc_1"})({3,4}) + z({"sfc_1"})({4,3}) <= 1
 c70:  z({"sfc_1"})({3,5}) + z({"sfc_1"})({5,3}) <= 1
 c71:  z({"sfc_1"})({4,5}) + z({"sfc_1"})({5,4}) <= 1
 c72:  z({"sfc_1"})({5,6}) + z({"sfc_1"})({6,5}) <= 1
 c73:  z({"sfc_1"})({1,6}) + z({"sfc_1"})({6,1}) <= 1
 c74:  z({"sfc_1"})({1,2}) + z({"sfc_1"})({2,1}) <= 1
 c75:  z({"sfc_1"})({2,3}) + z({"sfc_1"})({3,2}) <= 1
 c76:  z({"sfc_1"})({2,6}) + z({"sfc_1"})({6,2}) <= 1
 c77:  z({"sfc_1"})({2,5}) + z({"sfc_1"})({5,2}) <= 1
 c78:  z({"sfc_1"})({3,4}) + z({"sfc_1"})({4,3}) <= 1
 c79:  z({"sfc_1"})({3,5}) + z({"sfc_1"})({5,3}) <= 1
 c80:  z({"sfc_1"})({4,5}) + z({"sfc_1"})({5,4}) <= 1
 c81:  z({"sfc_1"})({5,6}) + z({"sfc_1"})({6,5}) <= 1
 c82:  z({"sfc_1"})({1,6}) + z({"sfc_1"})({6,1}) <= 1
 c83:  z({"sfc_2"})({1,2}) + z({"sfc_2"})({2,1}) <= 1
 c84:  z({"sfc_2"})({2,3}) + z({"sfc_2"})({3,2}) <= 1
 c85:  z({"sfc_2"})({2,6}) + z({"sfc_2"})({6,2}) <= 1
 c86:  z({"sfc_2"})({2,5}) + z({"sfc_2"})({5,2}) <= 1
 c87:  z({"sfc_2"})({3,4}) + z({"sfc_2"})({4,3}) <= 1
 c88:  z({"sfc_2"})({3,5}) + z({"sfc_2"})({5,3}) <= 1
 c89:  z({"sfc_2"})({4,5}) + z({"sfc_2"})({5,4}) <= 1
 c90:  z({"sfc_2"})({5,6}) + z({"sfc_2"})({6,5}) <= 1
 c91:  z({"sfc_2"})({1,6}) + z({"sfc_2"})({6,1}) <= 1
 c92:  z({"sfc_2"})({1,2}) + z({"sfc_2"})({2,1}) <= 1
 c93:  z({"sfc_2"})({2,3}) + z({"sfc_2"})({3,2}) <= 1
 c94:  z({"sfc_2"})({2,6}) + z({"sfc_2"})({6,2}) <= 1
 c95:  z({"sfc_2"})({2,5}) + z({"sfc_2"})({5,2}) <= 1
 c96:  z({"sfc_2"})({3,4}) + z({"sfc_2"})({4,3}) <= 1
 c97:  z({"sfc_2"})({3,5}) + z({"sfc_2"})({5,3}) <= 1
 c98:  z({"sfc_2"})({4,5}) + z({"sfc_2"})({5,4}) <= 1
 c99:  z({"sfc_2"})({5,6}) + z({"sfc_2"})({6,5}) <= 1
 c100: z({"sfc_2"})({1,6}) + z({"sfc_2"})({6,1}) <= 1
 i1:   x55 = 1 <-> y({"sfc_1"})(1)(2)  = 1
 i2:   x56 = 1 <-> x("VNF2")(2)  = 1
 i3:   x55 = 1 -> x56  = 1
 i4:   x57 = 1 <-> x("VNF2")(2)  = 0
 i5:   x58 = 1 <-> y({"sfc_1"})(1)(2)  = 0
 i6:   x57 = 1 -> x58  = 1
 i7:   x59 = 1 <-> y({"sfc_1"})(1)(3)  = 1
 i8:   x60 = 1 <-> x("VNF2")(3)  = 1
 i9:   x59 = 1 -> x60  = 1
 i10:  x61 = 1 <-> x("VNF2")(3)  = 0
 i11:  x62 = 1 <-> y({"sfc_1"})(1)(3)  = 0
 i12:  x61 = 1 -> x62  = 1
 i13:  x63 = 1 <-> y({"sfc_1"})(1)(5)  = 1
 i14:  x64 = 1 <-> x("VNF2")(5)  = 1
 i15:  x63 = 1 -> x64  = 1
 i16:  x65 = 1 <-> x("VNF2")(5)  = 0
 i17:  x66 = 1 <-> y({"sfc_1"})(1)(5)  = 0
 i18:  x65 = 1 -> x66  = 1
 i19:  x67 = 1 <-> y({"sfc_1"})(1)(6)  = 1
 i20:  x68 = 1 <-> x("VNF2")(6)  = 1
 i21:  x67 = 1 -> x68  = 1
 i22:  x69 = 1 <-> x("VNF2")(6)  = 0
 i23:  x70 = 1 <-> y({"sfc_1"})(1)(6)  = 0
 i24:  x69 = 1 -> x70  = 1
 i25:  x71 = 1 <-> y({"sfc_1"})(2)(2)  = 1
 i26:  x72 = 1 <-> x("VNF3")(2)  = 1
 i27:  x71 = 1 -> x72  = 1
 i28:  x73 = 1 <-> x("VNF3")(2)  = 0
 i29:  x74 = 1 <-> y({"sfc_1"})(2)(2)  = 0
 i30:  x73 = 1 -> x74  = 1
 i31:  x75 = 1 <-> y({"sfc_1"})(2)(3)  = 1
 i32:  x76 = 1 <-> x("VNF3")(3)  = 1
 i33:  x75 = 1 -> x76  = 1
 i34:  x77 = 1 <-> x("VNF3")(3)  = 0
 i35:  x78 = 1 <-> y({"sfc_1"})(2)(3)  = 0
 i36:  x77 = 1 -> x78  = 1
 i37:  x79 = 1 <-> y({"sfc_1"})(2)(5)  = 1
 i38:  x80 = 1 <-> x("VNF3")(5)  = 1
 i39:  x79 = 1 -> x80  = 1
 i40:  x81 = 1 <-> x("VNF3")(5)  = 0
 i41:  x82 = 1 <-> y({"sfc_1"})(2)(5)  = 0
 i42:  x81 = 1 -> x82  = 1
 i43:  x83 = 1 <-> y({"sfc_1"})(2)(6)  = 1
 i44:  x84 = 1 <-> x("VNF3")(6)  = 1
 i45:  x83 = 1 -> x84  = 1
 i46:  x85 = 1 <-> x("VNF3")(6)  = 0
 i47:  x86 = 1 <-> y({"sfc_1"})(2)(6)  = 0
 i48:  x85 = 1 -> x86  = 1
 i49:  x87 = 1 <-> y({"sfc_1"})(3)(2)  = 1
 i50:  x88 = 1 <-> x("VNF1")(2)  = 1
 i51:  x87 = 1 -> x88  = 1
 i52:  x89 = 1 <-> x("VNF1")(2)  = 0
 i53:  x90 = 1 <-> y({"sfc_1"})(3)(2)  = 0
 i54:  x89 = 1 -> x90  = 1
 i55:  x91 = 1 <-> y({"sfc_1"})(3)(3)  = 1
 i56:  x92 = 1 <-> x("VNF1")(3)  = 1
 i57:  x91 = 1 -> x92  = 1
 i58:  x93 = 1 <-> x("VNF1")(3)  = 0
 i59:  x94 = 1 <-> y({"sfc_1"})(3)(3)  = 0
 i60:  x93 = 1 -> x94  = 1
 i61:  x95 = 1 <-> y({"sfc_1"})(3)(5)  = 1
 i62:  x96 = 1 <-> x("VNF1")(5)  = 1
 i63:  x95 = 1 -> x96  = 1
 i64:  x97 = 1 <-> x("VNF1")(5)  = 0
 i65:  x98 = 1 <-> y({"sfc_1"})(3)(5)  = 0
 i66:  x97 = 1 -> x98  = 1
 i67:  x99 = 1 <-> y({"sfc_1"})(3)(6)  = 1
 i68:  x100 = 1 <-> x("VNF1")(6)  = 1
 i69:  x99 = 1 -> x100  = 1
 i70:  x101 = 1 <-> x("VNF1")(6)  = 0
 i71:  x102 = 1 <-> y({"sfc_1"})(3)(6)  = 0
 i72:  x101 = 1 -> x102  = 1
 i73:  x103 = 1 <-> y({"sfc_2"})(1)(2)  = 1
 i74:  x104 = 1 <-> x("VNF3")(2)  = 1
 i75:  x103 = 1 -> x104  = 1
 i76:  x105 = 1 <-> x("VNF3")(2)  = 0
 i77:  x106 = 1 <-> y({"sfc_2"})(1)(2)  = 0
 i78:  x105 = 1 -> x106  = 1
 i79:  x107 = 1 <-> y({"sfc_2"})(1)(3)  = 1
 i80:  x108 = 1 <-> x("VNF3")(3)  = 1
 i81:  x107 = 1 -> x108  = 1
 i82:  x109 = 1 <-> x("VNF3")(3)  = 0
 i83:  x110 = 1 <-> y({"sfc_2"})(1)(3)  = 0
 i84:  x109 = 1 -> x110  = 1
 i85:  x111 = 1 <-> y({"sfc_2"})(1)(5)  = 1
 i86:  x112 = 1 <-> x("VNF3")(5)  = 1
 i87:  x111 = 1 -> x112  = 1
 i88:  x113 = 1 <-> x("VNF3")(5)  = 0
 i89:  x114 = 1 <-> y({"sfc_2"})(1)(5)  = 0
 i90:  x113 = 1 -> x114  = 1
 i91:  x115 = 1 <-> y({"sfc_2"})(1)(6)  = 1
 i92:  x116 = 1 <-> x("VNF3")(6)  = 1
 i93:  x115 = 1 -> x116  = 1
 i94:  x117 = 1 <-> x("VNF3")(6)  = 0
 i95:  x118 = 1 <-> y({"sfc_2"})(1)(6)  = 0
 i96:  x117 = 1 -> x118  = 1
 i97:  x119 = 1 <-> y({"sfc_2"})(2)(2)  = 1
 i98:  x120 = 1 <-> x("VNF1")(2)  = 1
 i99:  x119 = 1 -> x120  = 1
 i100: x121 = 1 <-> x("VNF1")(2)  = 0
 i101: x122 = 1 <-> y({"sfc_2"})(2)(2)  = 0
 i102: x121 = 1 -> x122  = 1
 i103: x123 = 1 <-> y({"sfc_2"})(2)(3)  = 1
 i104: x124 = 1 <-> x("VNF1")(3)  = 1
 i105: x123 = 1 -> x124  = 1
 i106: x125 = 1 <-> x("VNF1")(3)  = 0
 i107: x126 = 1 <-> y({"sfc_2"})(2)(3)  = 0
 i108: x125 = 1 -> x126  = 1
 i109: x127 = 1 <-> y({"sfc_2"})(2)(5)  = 1
 i110: x128 = 1 <-> x("VNF1")(5)  = 1
 i111: x127 = 1 -> x128  = 1
 i112: x129 = 1 <-> x("VNF1")(5)  = 0
 i113: x130 = 1 <-> y({"sfc_2"})(2)(5)  = 0
 i114: x129 = 1 -> x130  = 1
 i115: x131 = 1 <-> y({"sfc_2"})(2)(6)  = 1
 i116: x132 = 1 <-> x("VNF1")(6)  = 1
 i117: x131 = 1 -> x132  = 1
 i118: x133 = 1 <-> x("VNF1")(6)  = 0
 i119: x134 = 1 <-> y({"sfc_2"})(2)(6)  = 0
 i120: x133 = 1 -> x134  = 1
 i121: x135 = 1 <-> y({"sfc_2"})(3)(2)  = 1
 i122: x136 = 1 <-> x("VNF2")(2)  = 1
 i123: x135 = 1 -> x136  = 1
 i124: x137 = 1 <-> x("VNF2")(2)  = 0
 i125: x138 = 1 <-> y({"sfc_2"})(3)(2)  = 0
 i126: x137 = 1 -> x138  = 1
 i127: x139 = 1 <-> y({"sfc_2"})(3)(3)  = 1
 i128: x140 = 1 <-> x("VNF2")(3)  = 1
 i129: x139 = 1 -> x140  = 1
 i130: x141 = 1 <-> x("VNF2")(3)  = 0
 i131: x142 = 1 <-> y({"sfc_2"})(3)(3)  = 0
 i132: x141 = 1 -> x142  = 1
 i133: x143 = 1 <-> y({"sfc_2"})(3)(5)  = 1
 i134: x144 = 1 <-> x("VNF2")(5)  = 1
 i135: x143 = 1 -> x144  = 1
 i136: x145 = 1 <-> x("VNF2")(5)  = 0
 i137: x146 = 1 <-> y({"sfc_2"})(3)(5)  = 0
 i138: x145 = 1 -> x146  = 1
 i139: x147 = 1 <-> y({"sfc_2"})(3)(6)  = 1
 i140: x148 = 1 <-> x("VNF2")(6)  = 1
 i141: x147 = 1 -> x148  = 1
 i142: x149 = 1 <-> x("VNF2")(6)  = 0
 i143: x150 = 1 <-> y({"sfc_2"})(3)(6)  = 0
 i144: x149 = 1 -> x150  = 1
 i145: x187 = 1 <-> y({"sfc_1"})(1)(2)  = 1
 i146: x188 = 1 <-> z({"sfc_1"})({1,2}) + z({"sfc_1"})({3,2})
       + z({"sfc_1"})({6,2}) + z({"sfc_1"})({5,2})  = 1
 i147: x187 = 1 -> x188  = 1
 i148: x189 = 1 <-> y({"sfc_1"})(2)(2)  = 1
 i149: x190 = 1 <-> z({"sfc_1"})({1,2}) + z({"sfc_1"})({3,2})
       + z({"sfc_1"})({6,2}) + z({"sfc_1"})({5,2})  = 1
 i150: x189 = 1 -> x190  = 1
 i151: x191 = 1 <-> y({"sfc_1"})(3)(2)  = 1
 i152: x192 = 1 <-> z({"sfc_1"})({1,2}) + z({"sfc_1"})({3,2})
       + z({"sfc_1"})({6,2}) + z({"sfc_1"})({5,2})  = 1
 i153: x191 = 1 -> x192  = 1
 i154: x193 = 1 <-> y({"sfc_1"})(1)(3)  = 1
 i155: x194 = 1 <-> z({"sfc_1"})({2,3}) + z({"sfc_1"})({4,3})
       + z({"sfc_1"})({5,3})  = 1
 i156: x193 = 1 -> x194  = 1
 i157: x195 = 1 <-> y({"sfc_1"})(2)(3)  = 1
 i158: x196 = 1 <-> z({"sfc_1"})({2,3}) + z({"sfc_1"})({4,3})
       + z({"sfc_1"})({5,3})  = 1
 i159: x195 = 1 -> x196  = 1
 i160: x197 = 1 <-> y({"sfc_1"})(3)(3)  = 1
 i161: x198 = 1 <-> z({"sfc_1"})({2,3}) + z({"sfc_1"})({4,3})
       + z({"sfc_1"})({5,3})  = 1
 i162: x197 = 1 -> x198  = 1
 i163: x199 = 1 <-> y({"sfc_1"})(1)(5)  = 1
 i164: x200 = 1 <-> z({"sfc_1"})({2,5}) + z({"sfc_1"})({3,5})
       + z({"sfc_1"})({4,5}) + z({"sfc_1"})({6,5})  = 1
 i165: x199 = 1 -> x200  = 1
 i166: x201 = 1 <-> y({"sfc_1"})(2)(5)  = 1
 i167: x202 = 1 <-> z({"sfc_1"})({2,5}) + z({"sfc_1"})({3,5})
       + z({"sfc_1"})({4,5}) + z({"sfc_1"})({6,5})  = 1
 i168: x201 = 1 -> x202  = 1
 i169: x203 = 1 <-> y({"sfc_1"})(3)(5)  = 1
 i170: x204 = 1 <-> z({"sfc_1"})({2,5}) + z({"sfc_1"})({3,5})
       + z({"sfc_1"})({4,5}) + z({"sfc_1"})({6,5})  = 1
 i171: x203 = 1 -> x204  = 1
 i172: x205 = 1 <-> y({"sfc_1"})(1)(6)  = 1
 i173: x206 = 1 <-> z({"sfc_1"})({2,6}) + z({"sfc_1"})({5,6})
       + z({"sfc_1"})({1,6})  = 1
 i174: x205 = 1 -> x206  = 1
 i175: x207 = 1 <-> y({"sfc_1"})(2)(6)  = 1
 i176: x208 = 1 <-> z({"sfc_1"})({2,6}) + z({"sfc_1"})({5,6})
       + z({"sfc_1"})({1,6})  = 1
 i177: x207 = 1 -> x208  = 1
 i178: x209 = 1 <-> y({"sfc_1"})(3)(6)  = 1
 i179: x210 = 1 <-> z({"sfc_1"})({2,6}) + z({"sfc_1"})({5,6})
       + z({"sfc_1"})({1,6})  = 1
 i180: x209 = 1 -> x210  = 1
 i181: x211 = 1 <-> y({"sfc_2"})(1)(2)  = 1
 i182: x212 = 1 <-> z({"sfc_2"})({1,2}) + z({"sfc_2"})({3,2})
       + z({"sfc_2"})({6,2}) + z({"sfc_2"})({5,2})  = 1
 i183: x211 = 1 -> x212  = 1
 i184: x213 = 1 <-> y({"sfc_2"})(2)(2)  = 1
 i185: x214 = 1 <-> z({"sfc_2"})({1,2}) + z({"sfc_2"})({3,2})
       + z({"sfc_2"})({6,2}) + z({"sfc_2"})({5,2})  = 1
 i186: x213 = 1 -> x214  = 1
 i187: x215 = 1 <-> y({"sfc_2"})(3)(2)  = 1
 i188: x216 = 1 <-> z({"sfc_2"})({1,2}) + z({"sfc_2"})({3,2})
       + z({"sfc_2"})({6,2}) + z({"sfc_2"})({5,2})  = 1
 i189: x215 = 1 -> x216  = 1
 i190: x217 = 1 <-> y({"sfc_2"})(1)(3)  = 1
 i191: x218 = 1 <-> z({"sfc_2"})({2,3}) + z({"sfc_2"})({4,3})
       + z({"sfc_2"})({5,3})  = 1
 i192: x217 = 1 -> x218  = 1
 i193: x219 = 1 <-> y({"sfc_2"})(2)(3)  = 1
 i194: x220 = 1 <-> z({"sfc_2"})({2,3}) + z({"sfc_2"})({4,3})
       + z({"sfc_2"})({5,3})  = 1
 i195: x219 = 1 -> x220  = 1
 i196: x221 = 1 <-> y({"sfc_2"})(3)(3)  = 1
 i197: x222 = 1 <-> z({"sfc_2"})({2,3}) + z({"sfc_2"})({4,3})
       + z({"sfc_2"})({5,3})  = 1
 i198: x221 = 1 -> x222  = 1
 i199: x223 = 1 <-> y({"sfc_2"})(1)(5)  = 1
 i200: x224 = 1 <-> z({"sfc_2"})({2,5}) + z({"sfc_2"})({3,5})
       + z({"sfc_2"})({4,5}) + z({"sfc_2"})({6,5})  = 1
 i201: x223 = 1 -> x224  = 1
 i202: x225 = 1 <-> y({"sfc_2"})(2)(5)  = 1
 i203: x226 = 1 <-> z({"sfc_2"})({2,5}) + z({"sfc_2"})({3,5})
       + z({"sfc_2"})({4,5}) + z({"sfc_2"})({6,5})  = 1
 i204: x225 = 1 -> x226  = 1
 i205: x227 = 1 <-> y({"sfc_2"})(3)(5)  = 1
 i206: x228 = 1 <-> z({"sfc_2"})({2,5}) + z({"sfc_2"})({3,5})
       + z({"sfc_2"})({4,5}) + z({"sfc_2"})({6,5})  = 1
 i207: x227 = 1 -> x228  = 1
 i208: x229 = 1 <-> y({"sfc_2"})(1)(6)  = 1
 i209: x230 = 1 <-> z({"sfc_2"})({2,6}) + z({"sfc_2"})({5,6})
       + z({"sfc_2"})({1,6})  = 1
 i210: x229 = 1 -> x230  = 1
 i211: x231 = 1 <-> y({"sfc_2"})(2)(6)  = 1
 i212: x232 = 1 <-> z({"sfc_2"})({2,6}) + z({"sfc_2"})({5,6})
       + z({"sfc_2"})({1,6})  = 1
 i213: x231 = 1 -> x232  = 1
 i214: x233 = 1 <-> y({"sfc_2"})(3)(6)  = 1
 i215: x234 = 1 <-> z({"sfc_2"})({2,6}) + z({"sfc_2"})({5,6})
       + z({"sfc_2"})({1,6})  = 1
 i216: x233 = 1 -> x234  = 1
 i217: x235 = 1 <-> y({"sfc_1"})(1)(2)  = 1
 i218: x236 = 1 <-> z({"sfc_1"})({1,2}) + z({"sfc_1"})({3,2})
       + z({"sfc_1"})({6,2}) + z({"sfc_1"})({5,2})  = 1
 i219: x235 = 1 -> x236  = 1
 i220: x237 = 1 <-> y({"sfc_1"})(2)(2)  = 1
 i221: x238 = 1 <-> z({"sfc_1"})({1,2}) + z({"sfc_1"})({3,2})
       + z({"sfc_1"})({6,2}) + z({"sfc_1"})({5,2})  = 1
 i222: x237 = 1 -> x238  = 1
 i223: x239 = 1 <-> y({"sfc_1"})(3)(2)  = 1
 i224: x240 = 1 <-> z({"sfc_1"})({1,2}) + z({"sfc_1"})({3,2})
       + z({"sfc_1"})({6,2}) + z({"sfc_1"})({5,2})  = 1
 i225: x239 = 1 -> x240  = 1
 i226: x241 = 1 <-> y({"sfc_1"})(1)(3)  = 1
 i227: x242 = 1 <-> z({"sfc_1"})({2,3}) + z({"sfc_1"})({4,3})
       + z({"sfc_1"})({5,3})  = 1
 i228: x241 = 1 -> x242  = 1
 i229: x243 = 1 <-> y({"sfc_1"})(2)(3)  = 1
 i230: x244 = 1 <-> z({"sfc_1"})({2,3}) + z({"sfc_1"})({4,3})
       + z({"sfc_1"})({5,3})  = 1
 i231: x243 = 1 -> x244  = 1
 i232: x245 = 1 <-> y({"sfc_1"})(3)(3)  = 1
 i233: x246 = 1 <-> z({"sfc_1"})({2,3}) + z({"sfc_1"})({4,3})
       + z({"sfc_1"})({5,3})  = 1
 i234: x245 = 1 -> x246  = 1
 i235: x247 = 1 <-> y({"sfc_1"})(1)(5)  = 1
 i236: x248 = 1 <-> z({"sfc_1"})({2,5}) + z({"sfc_1"})({3,5})
       + z({"sfc_1"})({4,5}) + z({"sfc_1"})({6,5})  = 1
 i237: x247 = 1 -> x248  = 1
 i238: x249 = 1 <-> y({"sfc_1"})(2)(5)  = 1
 i239: x250 = 1 <-> z({"sfc_1"})({2,5}) + z({"sfc_1"})({3,5})
       + z({"sfc_1"})({4,5}) + z({"sfc_1"})({6,5})  = 1
 i240: x249 = 1 -> x250  = 1
 i241: x251 = 1 <-> y({"sfc_1"})(3)(5)  = 1
 i242: x252 = 1 <-> z({"sfc_1"})({2,5}) + z({"sfc_1"})({3,5})
       + z({"sfc_1"})({4,5}) + z({"sfc_1"})({6,5})  = 1
 i243: x251 = 1 -> x252  = 1
 i244: x253 = 1 <-> y({"sfc_1"})(1)(6)  = 1
 i245: x254 = 1 <-> z({"sfc_1"})({2,6}) + z({"sfc_1"})({5,6})
       + z({"sfc_1"})({1,6})  = 1
 i246: x253 = 1 -> x254  = 1
 i247: x255 = 1 <-> y({"sfc_1"})(2)(6)  = 1
 i248: x256 = 1 <-> z({"sfc_1"})({2,6}) + z({"sfc_1"})({5,6})
       + z({"sfc_1"})({1,6})  = 1
 i249: x255 = 1 -> x256  = 1
 i250: x257 = 1 <-> y({"sfc_1"})(3)(6)  = 1
 i251: x258 = 1 <-> z({"sfc_1"})({2,6}) + z({"sfc_1"})({5,6})
       + z({"sfc_1"})({1,6})  = 1
 i252: x257 = 1 -> x258  = 1
 i253: x259 = 1 <-> y({"sfc_2"})(1)(2)  = 1
 i254: x260 = 1 <-> z({"sfc_2"})({1,2}) + z({"sfc_2"})({3,2})
       + z({"sfc_2"})({6,2}) + z({"sfc_2"})({5,2})  = 1
 i255: x259 = 1 -> x260  = 1
 i256: x261 = 1 <-> y({"sfc_2"})(2)(2)  = 1
 i257: x262 = 1 <-> z({"sfc_2"})({1,2}) + z({"sfc_2"})({3,2})
       + z({"sfc_2"})({6,2}) + z({"sfc_2"})({5,2})  = 1
 i258: x261 = 1 -> x262  = 1
 i259: x263 = 1 <-> y({"sfc_2"})(3)(2)  = 1
 i260: x264 = 1 <-> z({"sfc_2"})({1,2}) + z({"sfc_2"})({3,2})
       + z({"sfc_2"})({6,2}) + z({"sfc_2"})({5,2})  = 1
 i261: x263 = 1 -> x264  = 1
 i262: x265 = 1 <-> y({"sfc_2"})(1)(3)  = 1
 i263: x266 = 1 <-> z({"sfc_2"})({2,3}) + z({"sfc_2"})({4,3})
       + z({"sfc_2"})({5,3})  = 1
 i264: x265 = 1 -> x266  = 1
 i265: x267 = 1 <-> y({"sfc_2"})(2)(3)  = 1
 i266: x268 = 1 <-> z({"sfc_2"})({2,3}) + z({"sfc_2"})({4,3})
       + z({"sfc_2"})({5,3})  = 1
 i267: x267 = 1 -> x268  = 1
 i268: x269 = 1 <-> y({"sfc_2"})(3)(3)  = 1
 i269: x270 = 1 <-> z({"sfc_2"})({2,3}) + z({"sfc_2"})({4,3})
       + z({"sfc_2"})({5,3})  = 1
 i270: x269 = 1 -> x270  = 1
 i271: x271 = 1 <-> y({"sfc_2"})(1)(5)  = 1
 i272: x272 = 1 <-> z({"sfc_2"})({2,5}) + z({"sfc_2"})({3,5})
       + z({"sfc_2"})({4,5}) + z({"sfc_2"})({6,5})  = 1
 i273: x271 = 1 -> x272  = 1
 i274: x273 = 1 <-> y({"sfc_2"})(2)(5)  = 1
 i275: x274 = 1 <-> z({"sfc_2"})({2,5}) + z({"sfc_2"})({3,5})
       + z({"sfc_2"})({4,5}) + z({"sfc_2"})({6,5})  = 1
 i276: x273 = 1 -> x274  = 1
 i277: x275 = 1 <-> y({"sfc_2"})(3)(5)  = 1
 i278: x276 = 1 <-> z({"sfc_2"})({2,5}) + z({"sfc_2"})({3,5})
       + z({"sfc_2"})({4,5}) + z({"sfc_2"})({6,5})  = 1
 i279: x275 = 1 -> x276  = 1
 i280: x277 = 1 <-> y({"sfc_2"})(1)(6)  = 1
 i281: x278 = 1 <-> z({"sfc_2"})({2,6}) + z({"sfc_2"})({5,6})
       + z({"sfc_2"})({1,6})  = 1
 i282: x277 = 1 -> x278  = 1
 i283: x279 = 1 <-> y({"sfc_2"})(2)(6)  = 1
 i284: x280 = 1 <-> z({"sfc_2"})({2,6}) + z({"sfc_2"})({5,6})
       + z({"sfc_2"})({1,6})  = 1
 i285: x279 = 1 -> x280  = 1
 i286: x281 = 1 <-> y({"sfc_2"})(3)(6)  = 1
 i287: x282 = 1 <-> z({"sfc_2"})({2,6}) + z({"sfc_2"})({5,6})
       + z({"sfc_2"})({1,6})  = 1
 i288: x281 = 1 -> x282  = 1
Bounds
 0 <= x("VNF1")(1) <= 1
 0 <= x("VNF1")(2) <= 1
 0 <= x("VNF1")(3) <= 1
 0 <= x("VNF1")(4) <= 1
 0 <= x("VNF1")(5) <= 1
 0 <= x("VNF1")(6) <= 1
 0 <= x("VNF2")(1) <= 1
 0 <= x("VNF2")(2) <= 1
 0 <= x("VNF2")(3) <= 1
 0 <= x("VNF2")(4) <= 1
 0 <= x("VNF2")(5) <= 1
 0 <= x("VNF2")(6) <= 1
 0 <= x("VNF3")(1) <= 1
 0 <= x("VNF3")(2) <= 1
 0 <= x("VNF3")(3) <= 1
 0 <= x("VNF3")(4) <= 1
 0 <= x("VNF3")(5) <= 1
 0 <= x("VNF3")(6) <= 1
 0 <= y({"sfc_1"})(1)(1) <= 1
 0 <= y({"sfc_1"})(2)(1) <= 1
 0 <= y({"sfc_1"})(3)(1) <= 1
 0 <= y({"sfc_2"})(1)(1) <= 1
 0 <= y({"sfc_2"})(2)(1) <= 1
 0 <= y({"sfc_2"})(3)(1) <= 1
 0 <= y({"sfc_1"})(1)(2) <= 1
 0 <= y({"sfc_1"})(2)(2) <= 1
 0 <= y({"sfc_1"})(3)(2) <= 1
 0 <= y({"sfc_2"})(1)(2) <= 1
 0 <= y({"sfc_2"})(2)(2) <= 1
 0 <= y({"sfc_2"})(3)(2) <= 1
 0 <= y({"sfc_1"})(1)(3) <= 1
 0 <= y({"sfc_1"})(2)(3) <= 1
 0 <= y({"sfc_1"})(3)(3) <= 1
 0 <= y({"sfc_2"})(1)(3) <= 1
 0 <= y({"sfc_2"})(2)(3) <= 1
 0 <= y({"sfc_2"})(3)(3) <= 1
 0 <= y({"sfc_1"})(1)(4) <= 1
 0 <= y({"sfc_1"})(2)(4) <= 1
 0 <= y({"sfc_1"})(3)(4) <= 1
 0 <= y({"sfc_2"})(1)(4) <= 1
 0 <= y({"sfc_2"})(2)(4) <= 1
 0 <= y({"sfc_2"})(3)(4) <= 1
 0 <= y({"sfc_1"})(1)(5) <= 1
 0 <= y({"sfc_1"})(2)(5) <= 1
 0 <= y({"sfc_1"})(3)(5) <= 1
 0 <= y({"sfc_2"})(1)(5) <= 1
 0 <= y({"sfc_2"})(2)(5) <= 1
 0 <= y({"sfc_2"})(3)(5) <= 1
 0 <= y({"sfc_1"})(1)(6) <= 1
 0 <= y({"sfc_1"})(2)(6) <= 1
 0 <= y({"sfc_1"})(3)(6) <= 1
 0 <= y({"sfc_2"})(1)(6) <= 1
 0 <= y({"sfc_2"})(2)(6) <= 1
 0 <= y({"sfc_2"})(3)(6) <= 1
 0 <= x55 <= 1
 0 <= x56 <= 1
 0 <= x57 <= 1
 0 <= x58 <= 1
 0 <= x59 <= 1
 0 <= x60 <= 1
 0 <= x61 <= 1
 0 <= x62 <= 1
 0 <= x63 <= 1
 0 <= x64 <= 1
 0 <= x65 <= 1
 0 <= x66 <= 1
 0 <= x67 <= 1
 0 <= x68 <= 1
 0 <= x69 <= 1
 0 <= x70 <= 1
 0 <= x71 <= 1
 0 <= x72 <= 1
 0 <= x73 <= 1
 0 <= x74 <= 1
 0 <= x75 <= 1
 0 <= x76 <= 1
 0 <= x77 <= 1
 0 <= x78 <= 1
 0 <= x79 <= 1
 0 <= x80 <= 1
 0 <= x81 <= 1
 0 <= x82 <= 1
 0 <= x83 <= 1
 0 <= x84 <= 1
 0 <= x85 <= 1
 0 <= x86 <= 1
 0 <= x87 <= 1
 0 <= x88 <= 1
 0 <= x89 <= 1
 0 <= x90 <= 1
 0 <= x91 <= 1
 0 <= x92 <= 1
 0 <= x93 <= 1
 0 <= x94 <= 1
 0 <= x95 <= 1
 0 <= x96 <= 1
 0 <= x97 <= 1
 0 <= x98 <= 1
 0 <= x99 <= 1
 0 <= x100 <= 1
 0 <= x101 <= 1
 0 <= x102 <= 1
 0 <= x103 <= 1
 0 <= x104 <= 1
 0 <= x105 <= 1
 0 <= x106 <= 1
 0 <= x107 <= 1
 0 <= x108 <= 1
 0 <= x109 <= 1
 0 <= x110 <= 1
 0 <= x111 <= 1
 0 <= x112 <= 1
 0 <= x113 <= 1
 0 <= x114 <= 1
 0 <= x115 <= 1
 0 <= x116 <= 1
 0 <= x117 <= 1
 0 <= x118 <= 1
 0 <= x119 <= 1
 0 <= x120 <= 1
 0 <= x121 <= 1
 0 <= x122 <= 1
 0 <= x123 <= 1
 0 <= x124 <= 1
 0 <= x125 <= 1
 0 <= x126 <= 1
 0 <= x127 <= 1
 0 <= x128 <= 1
 0 <= x129 <= 1
 0 <= x130 <= 1
 0 <= x131 <= 1
 0 <= x132 <= 1
 0 <= x133 <= 1
 0 <= x134 <= 1
 0 <= x135 <= 1
 0 <= x136 <= 1
 0 <= x137 <= 1
 0 <= x138 <= 1
 0 <= x139 <= 1
 0 <= x140 <= 1
 0 <= x141 <= 1
 0 <= x142 <= 1
 0 <= x143 <= 1
 0 <= x144 <= 1
 0 <= x145 <= 1
 0 <= x146 <= 1
 0 <= x147 <= 1
 0 <= x148 <= 1
 0 <= x149 <= 1
 0 <= x150 <= 1
 0 <= z({"sfc_1"})({1,2}) <= 1
 0 <= z({"sfc_2"})({1,2}) <= 1
 0 <= z({"sfc_1"})({2,3}) <= 1
 0 <= z({"sfc_2"})({2,3}) <= 1
 0 <= z({"sfc_1"})({2,6}) <= 1
 0 <= z({"sfc_2"})({2,6}) <= 1
 0 <= z({"sfc_1"})({2,5}) <= 1
 0 <= z({"sfc_2"})({2,5}) <= 1
 0 <= z({"sfc_1"})({3,4}) <= 1
 0 <= z({"sfc_2"})({3,4}) <= 1
 0 <= z({"sfc_1"})({3,5}) <= 1
 0 <= z({"sfc_2"})({3,5}) <= 1
 0 <= z({"sfc_1"})({4,5}) <= 1
 0 <= z({"sfc_2"})({4,5}) <= 1
 0 <= z({"sfc_1"})({5,6}) <= 1
 0 <= z({"sfc_2"})({5,6}) <= 1
 0 <= z({"sfc_1"})({1,6}) <= 1
 0 <= z({"sfc_2"})({1,6}) <= 1
 0 <= z({"sfc_1"})({2,1}) <= 1
 0 <= z({"sfc_2"})({2,1}) <= 1
 0 <= z({"sfc_1"})({3,2}) <= 1
 0 <= z({"sfc_2"})({3,2}) <= 1
 0 <= z({"sfc_1"})({6,2}) <= 1
 0 <= z({"sfc_2"})({6,2}) <= 1
 0 <= z({"sfc_1"})({5,2}) <= 1
 0 <= z({"sfc_2"})({5,2}) <= 1
 0 <= z({"sfc_1"})({4,3}) <= 1
 0 <= z({"sfc_2"})({4,3}) <= 1
 0 <= z({"sfc_1"})({5,3}) <= 1
 0 <= z({"sfc_2"})({5,3}) <= 1
 0 <= z({"sfc_1"})({5,4}) <= 1
 0 <= z({"sfc_2"})({5,4}) <= 1
 0 <= z({"sfc_1"})({6,5}) <= 1
 0 <= z({"sfc_2"})({6,5}) <= 1
 0 <= z({"sfc_1"})({6,1}) <= 1
 0 <= z({"sfc_2"})({6,1}) <= 1
 0 <= x187 <= 1
 0 <= x188 <= 1
 0 <= x189 <= 1
 0 <= x190 <= 1
 0 <= x191 <= 1
 0 <= x192 <= 1
 0 <= x193 <= 1
 0 <= x194 <= 1
 0 <= x195 <= 1
 0 <= x196 <= 1
 0 <= x197 <= 1
 0 <= x198 <= 1
 0 <= x199 <= 1
 0 <= x200 <= 1
 0 <= x201 <= 1
 0 <= x202 <= 1
 0 <= x203 <= 1
 0 <= x204 <= 1
 0 <= x205 <= 1
 0 <= x206 <= 1
 0 <= x207 <= 1
 0 <= x208 <= 1
 0 <= x209 <= 1
 0 <= x210 <= 1
 0 <= x211 <= 1
 0 <= x212 <= 1
 0 <= x213 <= 1
 0 <= x214 <= 1
 0 <= x215 <= 1
 0 <= x216 <= 1
 0 <= x217 <= 1
 0 <= x218 <= 1
 0 <= x219 <= 1
 0 <= x220 <= 1
 0 <= x221 <= 1
 0 <= x222 <= 1
 0 <= x223 <= 1
 0 <= x224 <= 1
 0 <= x225 <= 1
 0 <= x226 <= 1
 0 <= x227 <= 1
 0 <= x228 <= 1
 0 <= x229 <= 1
 0 <= x230 <= 1
 0 <= x231 <= 1
 0 <= x232 <= 1
 0 <= x233 <= 1
 0 <= x234 <= 1
 0 <= x235 <= 1
 0 <= x236 <= 1
 0 <= x237 <= 1
 0 <= x238 <= 1
 0 <= x239 <= 1
 0 <= x240 <= 1
 0 <= x241 <= 1
 0 <= x242 <= 1
 0 <= x243 <= 1
 0 <= x244 <= 1
 0 <= x245 <= 1
 0 <= x246 <= 1
 0 <= x247 <= 1
 0 <= x248 <= 1
 0 <= x249 <= 1
 0 <= x250 <= 1
 0 <= x251 <= 1
 0 <= x252 <= 1
 0 <= x253 <= 1
 0 <= x254 <= 1
 0 <= x255 <= 1
 0 <= x256 <= 1
 0 <= x257 <= 1
 0 <= x258 <= 1
 0 <= x259 <= 1
 0 <= x260 <= 1
 0 <= x261 <= 1
 0 <= x262 <= 1
 0 <= x263 <= 1
 0 <= x264 <= 1
 0 <= x265 <= 1
 0 <= x266 <= 1
 0 <= x267 <= 1
 0 <= x268 <= 1
 0 <= x269 <= 1
 0 <= x270 <= 1
 0 <= x271 <= 1
 0 <= x272 <= 1
 0 <= x273 <= 1
 0 <= x274 <= 1
 0 <= x275 <= 1
 0 <= x276 <= 1
 0 <= x277 <= 1
 0 <= x278 <= 1
 0 <= x279 <= 1
 0 <= x280 <= 1
 0 <= x281 <= 1
 0 <= x282 <= 1
Binaries
 x("VNF1")(1)  x("VNF1")(2)  x("VNF1")(3)  x("VNF1")(4)  x("VNF1")(5) 
 x("VNF1")(6)  x("VNF2")(1)  x("VNF2")(2)  x("VNF2")(3)  x("VNF2")(4) 
 x("VNF2")(5)  x("VNF2")(6)  x("VNF3")(1)  x("VNF3")(2)  x("VNF3")(3) 
 x("VNF3")(4)  x("VNF3")(5)  x("VNF3")(6)  y({"sfc_1"})(1)(1) 
 y({"sfc_1"})(2)(1)  y({"sfc_1"})(3)(1)  y({"sfc_2"})(1)(1) 
 y({"sfc_2"})(2)(1)  y({"sfc_2"})(3)(1)  y({"sfc_1"})(1)(2) 
 y({"sfc_1"})(2)(2)  y({"sfc_1"})(3)(2)  y({"sfc_2"})(1)(2) 
 y({"sfc_2"})(2)(2)  y({"sfc_2"})(3)(2)  y({"sfc_1"})(1)(3) 
 y({"sfc_1"})(2)(3)  y({"sfc_1"})(3)(3)  y({"sfc_2"})(1)(3) 
 y({"sfc_2"})(2)(3)  y({"sfc_2"})(3)(3)  y({"sfc_1"})(1)(4) 
 y({"sfc_1"})(2)(4)  y({"sfc_1"})(3)(4)  y({"sfc_2"})(1)(4) 
 y({"sfc_2"})(2)(4)  y({"sfc_2"})(3)(4)  y({"sfc_1"})(1)(5) 
 y({"sfc_1"})(2)(5)  y({"sfc_1"})(3)(5)  y({"sfc_2"})(1)(5) 
 y({"sfc_2"})(2)(5)  y({"sfc_2"})(3)(5)  y({"sfc_1"})(1)(6) 
 y({"sfc_1"})(2)(6)  y({"sfc_1"})(3)(6)  y({"sfc_2"})(1)(6) 
 y({"sfc_2"})(2)(6)  y({"sfc_2"})(3)(6)  x55  x56  x57  x58  x59  x60  x61 
 x62  x63  x64  x65  x66  x67  x68  x69  x70  x71  x72  x73  x74  x75  x76 
 x77  x78  x79  x80  x81  x82  x83  x84  x85  x86  x87  x88  x89  x90  x91 
 x92  x93  x94  x95  x96  x97  x98  x99  x100  x101  x102  x103  x104  x105 
 x106  x107  x108  x109  x110  x111  x112  x113  x114  x115  x116  x117  x118 
 x119  x120  x121  x122  x123  x124  x125  x126  x127  x128  x129  x130  x131 
 x132  x133  x134  x135  x136  x137  x138  x139  x140  x141  x142  x143  x144 
 x145  x146  x147  x148  x149  x150  z({"sfc_1"})({1,2})  z({"sfc_2"})({1,2}) 
 z({"sfc_1"})({2,3})  z({"sfc_2"})({2,3})  z({"sfc_1"})({2,6}) 
 z({"sfc_2"})({2,6})  z({"sfc_1"})({2,5})  z({"sfc_2"})({2,5}) 
 z({"sfc_1"})({3,4})  z({"sfc_2"})({3,4})  z({"sfc_1"})({3,5}) 
 z({"sfc_2"})({3,5})  z({"sfc_1"})({4,5})  z({"sfc_2"})({4,5}) 
 z({"sfc_1"})({5,6})  z({"sfc_2"})({5,6})  z({"sfc_1"})({1,6}) 
 z({"sfc_2"})({1,6})  z({"sfc_1"})({2,1})  z({"sfc_2"})({2,1}) 
 z({"sfc_1"})({3,2})  z({"sfc_2"})({3,2})  z({"sfc_1"})({6,2}) 
 z({"sfc_2"})({6,2})  z({"sfc_1"})({5,2})  z({"sfc_2"})({5,2}) 
 z({"sfc_1"})({4,3})  z({"sfc_2"})({4,3})  z({"sfc_1"})({5,3}) 
 z({"sfc_2"})({5,3})  z({"sfc_1"})({5,4})  z({"sfc_2"})({5,4}) 
 z({"sfc_1"})({6,5})  z({"sfc_2"})({6,5})  z({"sfc_1"})({6,1}) 
 z({"sfc_2"})({6,1})  x187  x188  x189  x190  x191  x192  x193  x194  x195 
 x196  x197  x198  x199  x200  x201  x202  x203  x204  x205  x206  x207  x208 
 x209  x210  x211  x212  x213  x214  x215  x216  x217  x218  x219  x220  x221 
 x222  x223  x224  x225  x226  x227  x228  x229  x230  x231  x232  x233  x234 
 x235  x236  x237  x238  x239  x240  x241  x242  x243  x244  x245  x246  x247 
 x248  x249  x250  x251  x252  x253  x254  x255  x256  x257  x258  x259  x260 
 x261  x262  x263  x264  x265  x266  x267  x268  x269  x270  x271  x272  x273 
 x274  x275  x276  x277  x278  x279  x280  x281  x282 
End
